NAME : obs.obs
TIME : 2020-10-29 14:00:41
COMMENT : hello world
DIMENSION : 12
OBSTACLE_SECTION
0 83.6120 82.4597
1 83.8950 53.2258
2 80.2167 29.4355
3 58.7132 23.1855
4 29.0043 27.2177
5 15.1402 42.3387
6 11.4620 65.3226
7 26.7408 79.2339
8 42.5855 60.4839
9 54.4691 48.7903
10 57.0155 75.6048
11 21.9308 12.0968
EOF
